SAT
73 47 31 -93 -99 98 -48 28 -70 -57 -62 -95 53 -59 78 -1 27 81 34 -46 -42 -74 -49 -90 85 91 -24 97 25 -86 -67 -16 76 -54 -71 72 -44 -84 100 10 -32 14 61 -40 -87 -65 64 -7 -41 26 -11 55 58 15 -18 83 -39 -13 4 19 -43 -30 69 52 92 -68 -60 82 -45 -35 9 17 6 -75 77 2 -29 5 56 -37 -38 20 -23 63 -94 96 22 51 -89 36 3 8 21 -33 -80 -88 -66 50 12 79 0
